numOfMachines = 4;
numOfRobots = 2;
numOfJobs = 5;
maxOperations = 3;
operationsCount = [3,3,3,2,2];

operation = [
[<0,0,0>,<1,12,0>,<2,24,0>,<4,18,1>],
[<0,0,0>,<1,36,0>,<3,12,0>,<2,30,1>],
[<0,0,0>,<3,18,0>,<4,6,0>,<1,24,0>],
[<0,0,0>,<4,12,0>,<2,30,0>],
[<0,0,0>,<3,6,0>,<1,18,1>]
];